0 1668 
1 1664 
2 1660 
3 1658 
4 1642 
5 1638 
6 1634 
7 1618 
8 1616 
9 1604 
10 1600 
11 1594 
12 1590 
13 1586 
14 1568 
15 1560 
16 1552 
17 1544 
18 1544 
19 1540 
20 1536 
21 1528 
22 1524 
23 1520 
24 1512 
25 1504 
26 1492 
27 1484 
28 1480 
29 1476 
30 1464 
31 1448 
32 1420 
33 1414 
34 1408 
35 1402 
36 1398 
37 1394 
38 1382 
39 1358 
40 1354 
41 1346 
42 1326 
43 1322 
44 1316 
45 1310 
46 1292 
47 1288 
48 1286 
49 1272 
50 1266 
51 1262 
52 1244 
53 1240 
54 1240 

